c instance by G2
c solution = 00000111100
c Known solution cost is 602 
p cnf 11 30
w 38 80 58 97 64 65 18 13 34 50 85
-4 -8 6 0
-1 9 -6 0
-5 1 11 0
10 -11 6 0
10 9 11 0
2 -4 -7 0
3 7 4 0
-5 -4 1 0
-6 -9 7 0
-8 6 -4 0
10 8 -6 0
3 11 7 0
-7 2 -3 0
-9 -1 2 0
-8 -2 -9 0
-7 10 6 0
-3 8 -1 0
5 -2 -4 0
-7 -5 11 0
11 9 4 0
-1 11 -10 0
9 -3 1 0
-4 -2 -6 0
7 9 10 0
-7 6 -8 0
1 -5 -2 0
-6 -10 4 0
11 7 1 0
4 -2 8 0
-8 -11 -7 0
